NAME: test1908
TYPE: TSP
DIMENSION: 11
EDGE_WEIGHT_TYPE: EUC_2D
NODE_COORD_SECTION
1 19.83460693400476 17.67122716845384
2 39.45715090079489 12.188595236433187
3 21.89134479114311 83.12602646968432
4 31.202382149953113 30.76829082372007
5 40.04986824296558 62.20912523464973
6 56.06714980315552 56.81505968347326
7 31.026170093248773 46.33006680854799
8 89.83266276784909 29.300683381992986
9 95.03498788582387 42.41859491293473
10 12.046022878738604 28.544100059836865
11 8.365870339756675 39.636955938145945
EOF
